41 122
16 20 37 39
2 5 19 27 33
1 6 10 17 20 24 27 30 34
10 16 28 39
6 11 17 25
1 6 13 27 33 34 35 36 39
2 4 5 7 17 23 27 40
6 14 25 28 32 37 39 40
12 14 17 21 28 29 32
20 22 23 28 29 37
2 3 14 28 35 40
4 15 20 28 33 34 38
8 13 23 27 30 31
5 12 15 19 23 35
7 8 10 21 25 31 32
11 13 22 33 34
0 3 27 28 32 33
2 4 6 8 35
20 34 37 38
1 13 22 37 38
0 2 9 11 18 28 30 35 38
8 14 22 23 33 35
9 15 19 21 30 35 39
6 9 12 13 21 29 30 32
2 31 36
4 7 14 39 40

1 2 5 6 12 16
3 7 8 9 10 11 16 20 38 40
8 9 23 40
2 12 20 22 23 36
12 14 24
7 8 14 16 23 34
1 5 11 15 16 21 35
2 5 11 15 18 32 35
5 10 13 17 20 21 22 33 34
5 24 30 40
0 7 9 18 19
11 18 19 20 28
0 3 5 7 22 25
6 7 10 25 28 29 36
